c ren 1 -> 1
c ren 2 -> 2
c ren 3 -> 3
c ren 4 -> 4
c ren 5 -> 5
c ren 6 -> 6
c ren 7 -> 7
c ren 8 -> 8
c ren 9 -> 9
c ren 10 -> 10
c ren 11 -> 11
c ren 12 -> 12
c ren 13 -> 13
c ren 14 -> 14
c ren 15 -> 15
c ren 16 -> 16
c ren 17 -> 17
c ren 18 -> 18
c ren 19 -> 19
c ren 20 -> 20
c ren 21 -> 21
c ren 22 -> 22
c ren 23 -> 23
c ren 24 -> 24
c ren 25 -> 25
c ren 34 -> 26
c ren 35 -> 27
c ren 37 -> 28
c ren 63 -> 29
p cnf 29 79
a 1 2 3 4 5 6 7 8 9 10 11 12 13 14 15 16 17 18 19 20 21 0
d 22 5 18 0
d 23 7 20 0
d 24 6 19 0
d 25 17 21 0
e 26 27 28 29 0
-2 -26 0
-4 -26 0
-18 -26 27 0
18 26 27 0
-18 26 -27 0
18 -26 -27 0
-19 -22 28 0
19 22 28 0
-19 22 -28 0
19 -22 -28 0
28 29 0
-16 -20 21 -24 -27 -28 -29 0
-13 -20 21 -24 -27 -28 -29 0
-15 -20 21 -24 -27 -28 -29 0
-11 20 21 24 -27 -28 -29 0
-12 -20 21 -24 -27 -28 -29 0
-14 -20 21 -24 -27 -28 -29 0
-11 -20 21 -24 -27 -28 -29 0
-9 20 21 24 -27 -28 -29 0
8 9 10 11 12 13 14 15 16 20 -21 -23 24 -27 -28 0
5 6 7 11 17 23 -26 29 0
-7 -23 29 0
-6 -23 29 0
-14 20 21 24 -27 -28 -29 0
-10 -20 21 -24 -27 -28 -29 0
-10 20 21 24 -27 -28 -29 0
1 2 3 4 26 0
-1 -26 0
-3 -26 0
-5 -6 -22 29 0
5 6 -7 24 -26 29 0
-5 -7 -24 29 0
-5 -23 29 0
-8 20 21 24 -27 -28 -29 0
-25 26 29 0
-6 -7 -24 29 0
5 -6 22 -26 29 0
5 6 7 -9 23 -26 29 0
-12 20 21 24 -27 -28 -29 0
-8 -20 21 -24 -27 -28 -29 0
-5 -25 29 0
-6 -22 26 29 0
-7 -24 26 29 0
-23 26 29 0
-15 20 21 24 -27 -28 -29 0
-6 -25 29 0
-6 -11 29 0
-5 -11 29 0
5 6 7 11 -16 23 -26 29 0
-7 -25 29 0
8 9 10 11 -23 29 0
-7 -11 29 0
-13 20 21 24 -27 -28 -29 0
-9 -20 21 -24 -27 -28 -29 0
-8 -11 29 0
-8 -25 29 0
5 6 7 11 -15 23 -26 29 0
-10 -11 29 0
5 6 7 8 9 10 11 15 -17 25 -26 29 0
-20 21 23 -24 -27 -28 -29 0
-9 -25 29 0
-9 -11 29 0
5 6 7 11 -13 23 -26 29 0
5 6 7 11 -12 23 -26 29 0
-11 26 29 0
-10 -25 29 0
5 6 7 11 -14 23 -26 29 0
27 29 0
5 6 7 -10 23 -26 29 0
-16 20 21 24 -27 -28 -29 0
-11 -25 29 0
5 6 7 -8 23 -26 29 0
20 21 23 24 -27 -28 -29 0
8 9 10 11 12 13 14 15 16 -20 -21 -23 -24 -27 -28 0
-13 -25 29 0
-14 -25 29 0
-12 -25 29 0
-15 -25 29 0
-16 -25 29 0
